% demand
num_movements = 14;
loading_factor = [1050, 1100, 1950, 800, 1750, 1200, 1400, 1500, 1450, 1300, 1450, 1900, 1100, 2000];
pickup_time = [0, 0, 0, 0, 1, 1, 2, 3, 3, 3, 5, 5, 7, 7];
delivery_time = [1, 3, 6, 5, 3, 2, 3, 5, 5, 7, 8, 8, 8, 8];

% transporter definition
total_capacity = 7000;
num_decks = 3;
capacity = [3000, 1000, 3000];

% ways out of decks
num_ways_out = 1;
paths_out = array3d(decks, ways_out, decks, [
% ways out of deck d1
2, 3, 0, 

% ways out of deck d2
3, 0, 0, 

% ways out of deck d3
0, 0, 0,	

]);

